Minimize
  obj: x0 + x1 + x2 + x3 + x4 + x5 + x6 + x7

Subject To
  c0: x1 + x3 + x4 + x5 = 52
  c1: x5 + x7 = 36
  c2: x0 + x1 + x2 + x3 + x4 = 53
  c3: x0 + x1 + x3 + x5 = 51
  c4: x0 + x1 + x2 + x3 + x4 + x5 = 72
  c5: x1 + x2 + x3 + x5 + x6 + x7 = 81
  c6: x0 + x3 + x6 = 41
  c7: x0 + x1 + x2 + x3 + x7 = 59

Bounds
  x0 >= 0
  x1 >= 0
  x2 >= 0
  x3 >= 0
  x4 >= 0
  x5 >= 0
  x6 >= 0
  x7 >= 0

Generals
  x0 x1 x2 x3 x4 x5 x6 x7

End
